unsat
(forall ((A (_ BitVec 17))
         (B (_ BitVec 17))
         (C (_ BitVec 1))
         (D (_ BitVec 1))
         (E (_ BitVec 17))
         (F (_ BitVec 13))
         (G (_ BitVec 13))
         (H (_ BitVec 10))
         (I (_ BitVec 17))
         (J (_ BitVec 1))
         (K (_ BitVec 1))
         (L (_ BitVec 1))
         (M (_ BitVec 24))
         (N (_ BitVec 32))
         (O (_ BitVec 42))
         (P (_ BitVec 1))
         (Q (_ BitVec 14))
         (R (_ BitVec 1))
         (S (_ BitVec 17))
         (T (_ BitVec 17))
         (U (_ BitVec 14))
         (V (_ BitVec 14))
         (W (_ BitVec 1))
         (X (_ BitVec 1))
         (Y (_ BitVec 1))
         (Z (_ BitVec 51))
         (A1 (_ BitVec 17))
         (B1 (_ BitVec 17))
         (C1 (_ BitVec 14))
         (D1 (_ BitVec 10))
         (E1 (_ BitVec 17))
         (F1 (_ BitVec 1))
         (G1 (_ BitVec 1))
         (H1 (_ BitVec 24))
         (I1 (_ BitVec 1))
         (J1 (_ BitVec 1))
         (K1 (_ BitVec 1))
         (L1 (_ BitVec 19))
         (M1 (_ BitVec 1))
         (N1 (_ BitVec 1))
         (O1 (_ BitVec 19))
         (P1 (_ BitVec 17))
         (Q1 (_ BitVec 1))
         (R1 (_ BitVec 1))
         (S1 (_ BitVec 1))
         (T1 (_ BitVec 19))
         (U1 (_ BitVec 10))
         (V1 (_ BitVec 1))
         (W1 (_ BitVec 1))
         (X1 (_ BitVec 1))
         (Y1 (_ BitVec 14))
         (Z1 (_ BitVec 14))
         (A2 (_ BitVec 14))
         (B2 (_ BitVec 17))
         (C2 (_ BitVec 17))
         (D2 (_ BitVec 1))
         (E2 (_ BitVec 17))
         (F2 (_ BitVec 17))
         (G2 (_ BitVec 31))
         (H2 (_ BitVec 31))
         (I2 (_ BitVec 31))
         (J2 (_ BitVec 31))
         (K2 (_ BitVec 31))
         (L2 (_ BitVec 17))
         (M2 (_ BitVec 1))
         (N2 (_ BitVec 17))
         (O2 (_ BitVec 14))
         (P2 (_ BitVec 17))
         (Q2 (_ BitVec 1))
         (R2 (_ BitVec 3))
         (S2 (_ BitVec 17))
         (T2 (_ BitVec 32))
         (U2 (_ BitVec 1))
         (V2 (_ BitVec 14))
         (W2 (_ BitVec 31))
         (X2 (_ BitVec 31))
         (Y2 (_ BitVec 19))
         (Z2 (_ BitVec 10))
         (A3 (_ BitVec 10))
         (B3 (_ BitVec 8))
         (C3 (_ BitVec 19))
         (D3 (_ BitVec 1))
         (E3 (_ BitVec 1))
         (F3 (_ BitVec 1))
         (G3 (_ BitVec 1))
         (H3 (_ BitVec 1))
         (I3 (_ BitVec 1))
         (J3 (_ BitVec 1))
         (K3 (_ BitVec 1))
         (L3 (_ BitVec 1))
         (M3 (_ BitVec 17))
         (N3 (_ BitVec 19))
         (O3 (_ BitVec 19))
         (P3 (_ BitVec 7))
         (Q3 (_ BitVec 17))
         (R3 (_ BitVec 24))
         (S3 (_ BitVec 1))
         (T3 (_ BitVec 32))
         (U3 (_ BitVec 24))
         (V3 (_ BitVec 1)))
  (! (let ((a!1 (or (= E2 #b00000000000000000)
                    (not ((_ bit2bool 2) O))
                    (not (= ((_ extract 27 14) O) #b11111111111011))
                    (not (= ((_ extract 30 28) O) #b101))))
           (a!2 (= (concat ((_ extract 12 12) F) F)
                   (bvmul #b11111111111111 (concat ((_ extract 12 12) G) G))))
           (a!3 (= ((_ extract 5 2)
                     (bvadd (concat #b00 L1) ((_ extract 30 10) I2)))
                   ((_ extract 15 12) E2)))
           (a!4 (= ((_ extract 7 4)
                     (bvadd (concat #x0 Y2) ((_ extract 30 8) W2)))
                   ((_ extract 15 12) A1)))
           (a!5 (= ((_ extract 9 6)
                     (bvadd (concat #b000000 T1) ((_ extract 30 6) H2)))
                   ((_ extract 15 12) C2)))
           (a!6 (or (= R2 #b000)
                    ((_ bit2bool 1) R2)
                    (not ((_ bit2bool 15) O))
                    (not (= ((_ extract 12 0) O) F))))
           (a!7 (or (= E2 #b00000000000000000)
                    ((_ bit2bool 2) O)
                    ((_ bit2bool 17) O)
                    (not ((_ bit2bool 31) O))
                    (not ((_ bit2bool 3) O))
                    (not (= ((_ extract 30 30) O) #b1))))
           (a!8 (or (= R2 #b000)
                    ((_ bit2bool 1) R2)
                    (not (= ((_ extract 29 29) O) #b1))
                    (not (= ((_ extract 13 0) O) ((_ extract 27 14) O)))))
           (a!9 (or (= R2 #b000)
                    ((_ bit2bool 3) O)
                    ((_ bit2bool 1) R2)
                    ((_ bit2bool 17) O)
                    ((_ bit2bool 31) O)
                    (not ((_ bit2bool 16) O))
                    (not (= ((_ extract 30 30) O) #b1))))
           (a!10 (or (= C2 #b00000000000000000)
                     (not (= ((_ extract 29 29) O) #b1))
                     (not (= ((_ extract 27 0) O) ((_ extract 41 14) O)))))
           (a!11 (or (= R2 #b000)
                     ((_ bit2bool 14) O)
                     ((_ bit2bool 1) R2)
                     (not (= ((_ extract 1 1) O) #b1))
                     (not ((_ bit2bool 15) O))
                     (not (= ((_ extract 29 29) O) #b1))))
           (a!12 (bvadd (bvmul #b1111111111111
                               (concat ((_ extract 23 23) H1)
                                       ((_ extract 23 12) H1)))
                        (concat ((_ extract 23 23) M) ((_ extract 23 12) M))))
           (a!13 (= (bvmul #b11111111111111 (concat ((_ extract 12 12) G) G))
                    (concat ((_ extract 12 12) F) F)))
           (a!15 (bvadd (concat ((_ extract 11 11) M) ((_ extract 11 0) M))
                        (bvmul #b1111111111111
                               (concat ((_ extract 11 11) H1)
                                       ((_ extract 11 0) H1)))))
           (a!17 (not (= O (concat ((_ extract 27 0) O) #b00000000000000))))
           (a!18 (or (= R2 #b000)
                     ((_ bit2bool 1) R2)
                     (not (= ((_ extract 30 30) O) #b1))
                     (not (= ((_ extract 13 0) O) ((_ extract 27 14) O)))))
           (a!19 (or (= A1 #b00000000000000000)
                     (not ((_ bit2bool 14) O))
                     (not ((_ bit2bool 0) O))
                     (not (= ((_ extract 28 28) O) #b1))))
           (a!20 (= (bvadd (bvmul #b111 ((_ extract 2 0) M))
                           ((_ extract 2 0) H1))
                    (bvadd #b110
                           (bvmul #b111 ((_ extract 14 12) H1))
                           ((_ extract 14 12) M))))
           (a!22 ((_ extract 9 2)
                   (bvadd (concat #b0 O3) (concat #b000 ((_ extract 18 2) N3)))))
           (a!24 (concat ((_ extract 7 2)
                           (bvadd ((_ extract 30 4) G2) (concat #x00 O1)))
                         (bvadd ((_ extract 5 4) G2) ((_ extract 1 0) O1))
                         ((_ extract 3 0) G2)))
           (a!25 (concat ((_ extract 5 2)
                           (bvadd (concat #b000000 T1) ((_ extract 30 6) H2)))
                         (bvadd ((_ extract 1 0) T1) ((_ extract 7 6) H2))
                         ((_ extract 5 0) H2)))
           (a!26 (concat ((_ extract 3 2)
                           (bvadd (concat #x0 Y2) ((_ extract 30 8) W2)))
                         (bvadd ((_ extract 9 8) W2) ((_ extract 1 0) Y2))
                         ((_ extract 7 0) W2)))
           (a!27 (= (concat (bvadd ((_ extract 1 0) L1) ((_ extract 11 10) I2))
                            ((_ extract 9 0) I2))
                    ((_ extract 11 0) E2)))
           (a!28 (= (concat ((_ extract 11 11) H1) ((_ extract 11 0) H1))
                    (bvadd #b0000000000110
                           (concat ((_ extract 11 11) M) ((_ extract 11 0) M)))))
           (a!29 ((_ extract 13 10)
                   (bvadd (concat #b0 O3) (concat #b000 ((_ extract 18 2) N3)))))
           (a!30 (= ((_ extract 15 12) B1)
                    ((_ extract 11 8)
                      (bvadd ((_ extract 30 4) G2) (concat #x00 O1)))))
           (a!31 (or (= S2 #b00000000000000000)
                     (= L #b0)
                     (not (= V2 #b00000000000001))
                     (not (= U2 #b1))
                     (= (concat #b0 ((_ extract 15 0) S2))
                        ((_ extract 16 0) X2))))
           (a!32 (= ((_ extract 6 6)
                      (bvadd (concat #b00 L1) ((_ extract 30 10) I2)))
                    #b0))
           (a!33 (= ((_ extract 8 8)
                      (bvadd (concat #x0 Y2) ((_ extract 30 8) W2)))
                    #b0))
           (a!34 (= ((_ extract 10 10)
                      (bvadd (concat #b000000 T1) ((_ extract 30 6) H2)))
                    #b0))
           (a!35 ((_ extract 14 14)
                   (bvadd (concat #b0 O3) (concat #b000 ((_ extract 18 2) N3)))))
           (a!36 (= ((_ extract 12 12)
                      (bvadd ((_ extract 30 4) G2) (concat #x00 O1)))
                    #b0))
           (a!37 (= ((_ extract 4 4)
                      (bvadd ((_ extract 4 0) C3) ((_ extract 16 12) J2)))
                    #b0))
           (a!39 (= (concat ((_ extract 15 15) T2) ((_ extract 15 0) T2))
                    (bvmul #b11111111111111111
                           (concat ((_ extract 31 31) T2)
                                   ((_ extract 31 16) T2)))))
           (a!40 (= ((_ extract 16 3)
                      (bvmul #b11111111111111111 ((_ extract 33 17) Z)))
                    #b00000000000000))
           (a!41 (or (= F2 #b00000000000000000)
                     (not (= A2 #b00000000000001))
                     (= (concat #b0 ((_ extract 15 0) F2))
                        ((_ extract 16 0) K2))))
           (a!42 (= ((_ extract 15 1)
                      (bvmul #b11111111111111111 ((_ extract 33 17) Z)))
                    #b000000000000000))
           (a!44 (or (= R2 #b000)
                     ((_ bit2bool 1) R2)
                     ((_ bit2bool 1) O)
                     ((_ bit2bool 2) O)
                     ((_ bit2bool 16) O)
                     (not (= ((_ extract 41 28) O) #b11111111111011))))
           (a!45 (or (= S2 #b00000000000000000)
                     ((_ bit2bool 0) U2)
                     (not (= L #b0))
                     (not (= V2 #b00000000000001))
                     (= (concat #b0 ((_ extract 15 0) S2))
                        ((_ extract 16 0) X2)))))
     (let ((a!14 (or (= R2 #b000)
                     ((_ bit2bool 1) R2)
                     (not ((_ bit2bool 27) O))
                     (not (= ((_ extract 40 40) O) #b1))
                     (not a!13)))
           (a!16 (or (= R2 #b000)
                     ((_ bit2bool 1) R2)
                     (not ((_ bit2bool 28) O))
                     (not (= a!15 ((_ extract 12 0) O)))
                     (not (= G a!15))))
           (a!21 (or ((_ bit2bool 14) O)
                     ((_ bit2bool 1) R2)
                     ((_ bit2bool 2) R2)
                     (not ((_ bit2bool 0) R2))
                     (not (= ((_ extract 28 28) O) #b1))
                     (not (= F a!12))
                     (not (= G a!15))
                     (not a!20)))
           (a!23 (= (concat a!22
                            (bvadd ((_ extract 3 2) N3) ((_ extract 1 0) O3))
                            ((_ extract 1 0) N3))
                    ((_ extract 11 0) B2)))
           (a!38 (and (= ((_ extract 11 0) J2) ((_ extract 11 0) M3))
                      (= (bvadd ((_ extract 3 0) C3) ((_ extract 15 12) J2))
                         ((_ extract 15 12) M3))
                      a!37))
           (a!43 (or (= R2 #b000)
                     ((_ bit2bool 1) R2)
                     (not ((_ bit2bool 28) O))
                     (not (= F a!12))
                     (not (= ((_ extract 23 12) M) ((_ extract 23 12) H1))))))
     (let ((a!46 (and (or (= R2 #b000)
                          ((_ bit2bool 3) O)
                          ((_ bit2bool 1) R2)
                          ((_ bit2bool 1) O)
                          ((_ bit2bool 2) O)
                          ((_ bit2bool 17) O)
                          ((_ bit2bool 31) O)
                          (not ((_ bit2bool 15) O)))
                      (not ((_ bit2bool 4) Q3))
                      (not ((_ bit2bool 5) D1))
                      (not ((_ bit2bool 4) D1))
                      (not ((_ bit2bool 3) D1))
                      (not ((_ bit2bool 2) D1))
                      (not ((_ bit2bool 16) B2))
                      (not ((_ bit2bool 16) S2))
                      (not ((_ bit2bool 0) H))
                      (not (= ((_ extract 4 4) U1) #b1))
                      (not ((_ bit2bool 0) U1))
                      (not ((_ bit2bool 2) H))
                      (or (= R2 #b011) (not (= V1 #b1)) (= G1 #b0))
                      (or ((_ bit2bool 1) R2) (not (= N1 #b1)) (not (= Q2 #b1)))
                      (not ((_ bit2bool 16) F2))
                      (or (not (= N1 #b1))
                          (= S2 #b00000000000000000)
                          (= G1 #b0))
                      (or (= R2 #b000)
                          ((_ bit2bool 0) O)
                          ((_ bit2bool 1) R2)
                          ((_ bit2bool 28) O)
                          (not ((_ bit2bool 14) O)))
                      (or (= R2 #b000)
                          (not (= R1 #b1))
                          (not (= V1 #b1))
                          ((_ bit2bool 1) R2))
                      (not ((_ bit2bool 1) H))
                      (or (= R2 #b000)
                          ((_ bit2bool 1) R2)
                          ((_ bit2bool 2) O)
                          ((_ bit2bool 16) O)
                          ((_ bit2bool 30) O)
                          (not ((_ bit2bool 28) O))
                          (not ((_ bit2bool 15) O))
                          (not ((_ bit2bool 14) O)))
                      (or (= R2 #b000)
                          ((_ bit2bool 3) O)
                          ((_ bit2bool 1) R2)
                          ((_ bit2bool 2) O)
                          ((_ bit2bool 17) O)
                          ((_ bit2bool 31) O)
                          (not ((_ bit2bool 30) O)))
                      (or (= R2 #b000)
                          ((_ bit2bool 29) O)
                          ((_ bit2bool 1) R2)
                          ((_ bit2bool 1) O)
                          ((_ bit2bool 15) O)
                          (not ((_ bit2bool 28) O))
                          (not ((_ bit2bool 14) O)))
                      (or (= R2 #b000)
                          ((_ bit2bool 36) Z)
                          ((_ bit2bool 40) Z)
                          ((_ bit2bool 44) Z)
                          ((_ bit2bool 1) R2)
                          ((_ bit2bool 15) Z)
                          ((_ bit2bool 34) Z)
                          ((_ bit2bool 35) Z)
                          ((_ bit2bool 37) Z)
                          ((_ bit2bool 38) Z)
                          ((_ bit2bool 39) Z)
                          ((_ bit2bool 41) Z)
                          ((_ bit2bool 42) Z)
                          ((_ bit2bool 43) Z)
                          ((_ bit2bool 45) Z)
                          ((_ bit2bool 46) Z)
                          ((_ bit2bool 47) Z)
                          ((_ bit2bool 48) Z)
                          ((_ bit2bool 49) Z)
                          (not ((_ bit2bool 33) Z)))
                      (or (= R2 #b000)
                          ((_ bit2bool 1) R2)
                          ((_ bit2bool 13) O)
                          (not ((_ bit2bool 40) O))
                          (not ((_ bit2bool 26) O)))
                      a!1
                      (or (= R2 #b000)
                          ((_ bit2bool 0) O)
                          ((_ bit2bool 1) R2)
                          ((_ bit2bool 1) O)
                          (not ((_ bit2bool 29) O))
                          (not ((_ bit2bool 15) O))
                          (not ((_ bit2bool 14) O)))
                      (not ((_ bit2bool 3) H))
                      (not ((_ bit2bool 1) U1))
                      (or (= R2 #b000)
                          ((_ bit2bool 1) R2)
                          ((_ bit2bool 2) O)
                          (not ((_ bit2bool 28) O))
                          (not ((_ bit2bool 29) O))
                          (not ((_ bit2bool 30) O))
                          (not ((_ bit2bool 16) O))
                          (not ((_ bit2bool 14) O)))
                      (or (= R2 #b000)
                          ((_ bit2bool 1) R2)
                          (not ((_ bit2bool 2) O))
                          (not a!2))
                      (or (= R2 #b000)
                          ((_ bit2bool 3) O)
                          ((_ bit2bool 1) R2)
                          ((_ bit2bool 16) O)
                          ((_ bit2bool 30) O)
                          ((_ bit2bool 31) O)
                          (not ((_ bit2bool 17) O)))
                      (or (= R2 #b000)
                          ((_ bit2bool 12) F)
                          ((_ bit2bool 1) R2)
                          ((_ bit2bool 26) O)
                          (not ((_ bit2bool 13) O)))
                      a!3
                      a!4
                      a!5
                      a!6
                      (or (= M3 #b00000000000000000)
                          ((_ bit2bool 32) Z)
                          ((_ bit2bool 49) Z)
                          (not ((_ bit2bool 16) Z)))
                      (or (not (= G1 #b1)) (not (= N1 #b1)) (= R2 #b011))
                      (or (= R2 #b000)
                          ((_ bit2bool 1) R2)
                          ((_ bit2bool 26) O)
                          ((_ bit2bool 41) O)
                          (not ((_ bit2bool 13) O)))
                      (or ((_ bit2bool 1) R2) (not (= G1 #b1)) (= R2 #b000))
                      a!7
                      a!8
                      (or (= R2 #b000)
                          ((_ bit2bool 1) R2)
                          ((_ bit2bool 30) O)
                          (not ((_ bit2bool 28) O))
                          (not ((_ bit2bool 29) O))
                          (not ((_ bit2bool 16) O))
                          (not ((_ bit2bool 14) O))
                          (not ((_ bit2bool 2) O)))
                      (or (= R2 #b000)
                          ((_ bit2bool 1) R2)
                          (not ((_ bit2bool 14) O))
                          (= ((_ extract 17 17) O) #b1)
                          (= ((_ extract 31 31) O) #b1)
                          (not a!2))
                      a!9
                      (or (= R2 #b000)
                          ((_ bit2bool 14) O)
                          ((_ bit2bool 29) O)
                          ((_ bit2bool 1) R2)
                          ((_ bit2bool 16) O)
                          ((_ bit2bool 30) O)
                          (not ((_ bit2bool 2) O)))
                      (or (= R2 #b000)
                          ((_ bit2bool 0) G)
                          ((_ bit2bool 29) O)
                          ((_ bit2bool 1) R2)
                          ((_ bit2bool 16) O)
                          ((_ bit2bool 30) O)
                          (not ((_ bit2bool 2) O)))
                      (not ((_ bit2bool 1) Z2))
                      a!10
                      a!11
                      (not ((_ bit2bool 3) U1))
                      (not ((_ bit2bool 16) M3))
                      (not ((_ bit2bool 16) C2))
                      (or (= R2 #b000)
                          ((_ bit2bool 14) O)
                          ((_ bit2bool 0) O)
                          ((_ bit2bool 1) R2)
                          (not ((_ bit2bool 28) O)))
                      (or (= R2 #b000)
                          ((_ bit2bool 1) R2)
                          ((_ bit2bool 2) O)
                          (not ((_ bit2bool 29) O))
                          (not ((_ bit2bool 30) O))
                          (not ((_ bit2bool 16) O))
                          (= ((_ extract 1 1) O) #b1))
                      (not ((_ bit2bool 16) E2))
                      (not ((_ bit2bool 16) A1))
                      (or (= R2 #b000)
                          ((_ bit2bool 3) O)
                          ((_ bit2bool 1) F)
                          ((_ bit2bool 2) F)
                          ((_ bit2bool 1) R2)
                          ((_ bit2bool 12) H1)
                          ((_ bit2bool 15) H1)
                          ((_ bit2bool 12) M)
                          ((_ bit2bool 15) M)
                          (not ((_ bit2bool 17) O))
                          (not (= F a!12)))
                      (not ((_ bit2bool 2) U1))
                      (or (not (= Q3 #b00000000000000000))
                          (= B2 #b00000000000000000))
                      (or (= R2 #b000)
                          ((_ bit2bool 3) G)
                          ((_ bit2bool 1) R2)
                          (not ((_ bit2bool 17) O)))
                      (or (= R2 #b000)
                          ((_ bit2bool 14) O)
                          ((_ bit2bool 1) R2)
                          ((_ bit2bool 1) O)
                          ((_ bit2bool 15) O)
                          (not ((_ bit2bool 29) O)))
                      (not ((_ bit2bool 0) Z2))
                      (not ((_ bit2bool 6) D1))
                      (not ((_ bit2bool 9) D1))
                      (not ((_ bit2bool 0) D1))
                      (not ((_ bit2bool 1) D1))
                      (not ((_ bit2bool 8) D1))
                      (not ((_ bit2bool 7) D1))
                      (or (= A1 #b00000000000000000)
                          ((_ bit2bool 29) O)
                          ((_ bit2bool 15) O)
                          ((_ bit2bool 31) O)
                          (not ((_ bit2bool 17) O))
                          (not ((_ bit2bool 2) O))
                          (= ((_ extract 3 3) O) #b1))
                      (or (= A1 #b00000000000000000)
                          ((_ bit2bool 32) Z)
                          ((_ bit2bool 49) Z)
                          (not ((_ bit2bool 16) Z)))
                      (or (= C2 #b00000000000000000)
                          (not (= I #b00000000000000000)))
                      (or (not (= N2 #b00000000000000000))
                          (= A1 #b00000000000000000))
                      (or (= E2 #b00000000000000000)
                          ((_ bit2bool 3) O)
                          ((_ bit2bool 14) O)
                          ((_ bit2bool 31) O)
                          (not ((_ bit2bool 17) O))
                          (not ((_ bit2bool 2) O))
                          (not ((_ bit2bool 1) O)))
                      (not ((_ bit2bool 2) Z2))
                      (not ((_ bit2bool 3) Z2))
                      (not ((_ bit2bool 0) A3))
                      (not ((_ bit2bool 1) A3))
                      (not ((_ bit2bool 16) B1))
                      (not ((_ bit2bool 6) H))
                      (not ((_ bit2bool 7) H))
                      (not ((_ bit2bool 4) H))
                      (not ((_ bit2bool 5) U1))
                      a!14
                      (or (= R2 #b000)
                          ((_ bit2bool 1) R2)
                          (not ((_ bit2bool 0) O))
                          (not a!13))
                      a!16
                      (or ((_ bit2bool 14) O)
                          (= A1 #b00000000000000000)
                          ((_ bit2bool 29) O)
                          ((_ bit2bool 15) O)
                          (not ((_ bit2bool 1) O)))
                      (or (= R2 #b000)
                          ((_ bit2bool 14) O)
                          ((_ bit2bool 1) R2)
                          ((_ bit2bool 28) O)
                          (not ((_ bit2bool 0) O)))
                      (or (= R2 #b000)
                          (not ((_ bit2bool 0) G))
                          ((_ bit2bool 1) R2)
                          a!17)
                      a!18
                      (or (not (= N1 #b1)) (not (= V1 #b1)) ((_ bit2bool 1) R2))
                      (or (= R2 #b000)
                          ((_ bit2bool 3) O)
                          ((_ bit2bool 29) O)
                          ((_ bit2bool 1) R2)
                          ((_ bit2bool 15) O)
                          ((_ bit2bool 30) O)
                          ((_ bit2bool 31) O)
                          (not ((_ bit2bool 17) O)))
                      (or ((_ bit2bool 1) R2)
                          (not (= V1 #b1))
                          (not (= Q2 #b1))
                          (= R2 #b000))
                      (or (= R2 #b000)
                          ((_ bit2bool 14) O)
                          ((_ bit2bool 29) O)
                          ((_ bit2bool 1) R2)
                          ((_ bit2bool 30) O)
                          ((_ bit2bool 31) O)
                          (not ((_ bit2bool 17) O))
                          (= ((_ extract 3 3) O) #b1))
                      (or (= R2 #b000)
                          ((_ bit2bool 1) R2)
                          ((_ bit2bool 2) O)
                          ((_ bit2bool 17) O)
                          ((_ bit2bool 31) O)
                          (not ((_ bit2bool 16) O))
                          (= ((_ extract 3 3) O) #b1))
                      (or (= R2 #b000)
                          ((_ bit2bool 1) R2)
                          ((_ bit2bool 30) O)
                          (not ((_ bit2bool 2) O))
                          (not (= G #b0000000000000)))
                      (or (= B1 #b00000000000000000)
                          (not (= L2 #b00000000000000000)))
                      a!19
                      a!21
                      (not ((_ bit2bool 5) H))
                      (or ((_ bit2bool 14) O)
                          ((_ bit2bool 29) O)
                          (= M3 #b00000000000000000)
                          ((_ bit2bool 15) O)
                          (not ((_ bit2bool 1) O)))
                      (or (= E2 #b00000000000000000)
                          (not (= P1 #b00000000000000000)))
                      (or (not (= C1 #b00000000000001)) a!23)
                      (or (= ((_ extract 11 0) B1) a!24)
                          (not (= V #b00000000000001)))
                      (or (not (= Y1 #b00000000000001))
                          (= a!25 ((_ extract 11 0) C2)))
                      (or (not (= U #b00000000000001))
                          (= a!26 ((_ extract 11 0) A1)))
                      (or (not (= Z1 #b00000000000001)) a!27)
                      (or (= R2 #b000)
                          ((_ bit2bool 1) R2)
                          ((_ bit2bool 15) O)
                          (not (= G a!15))
                          (not a!28))
                      (or (= X #b0) (= S1 #b1))
                      (= a!29 ((_ extract 15 12) B2))
                      a!30
                      a!31
                      (or (= Q1 #b0) (not ((_ bit2bool 6) P3)) (not (= L3 #b1)))
                      (or (= W1 #b0) (not ((_ bit2bool 5) P3)) (not (= K3 #b1)))
                      a!32
                      (or (= X1 #b0) (not ((_ bit2bool 2) P3)) (not (= H3 #b1)))
                      a!33
                      a!34
                      (= a!35 #b0)
                      (or (not ((_ bit2bool 3) P3))
                          (not (= Y #b1))
                          (not (= I3 #b1)))
                      (or (not ((_ bit2bool 4) P3))
                          (not (= P #b1))
                          (not (= J3 #b1)))
                      (or (= R #b0) (not ((_ bit2bool 0) P3)) (not (= F3 #b1)))
                      (or (not ((_ bit2bool 1) P3))
                          (not (= E3 #b1))
                          (not (= G3 #b1)))
                      a!36
                      (or (= D3 #b0) (not (= D2 #b1)) (not (= J #b1)))
                      (or (= M3 #b00000000000000000)
                          a!38
                          (not (= Q #b00000000000001)))
                      (or (= R2 #b000)
                          (not ((_ bit2bool 1) G))
                          ((_ bit2bool 1) R2)
                          (= ((_ extract 15 15) O) #b1))
                      (or (= R2 #b000)
                          ((_ bit2bool 32) Z)
                          ((_ bit2bool 1) R2)
                          ((_ bit2bool 49) Z)
                          (not ((_ bit2bool 16) Z)))
                      (or (not (= D3 #b0)) (not (= D2 #b0)) (not (= J #b1)))
                      (or (not ((_ bit2bool 0) P3))
                          (not (= R #b0))
                          (not (= F3 #b0)))
                      (or (= R2 #b000)
                          ((_ bit2bool 36) Z)
                          ((_ bit2bool 1) R2)
                          ((_ bit2bool 34) Z)
                          ((_ bit2bool 35) Z)
                          (not ((_ bit2bool 33) Z))
                          (not a!39)
                          (not a!40))
                      (or (= R2 #b000)
                          ((_ bit2bool 14) O)
                          ((_ bit2bool 1) R2)
                          (not ((_ bit2bool 29) O))
                          (= ((_ extract 15 15) O) #b1)
                          (not a!13))
                      (or (not (= P #b0)) (= J3 #b1) (not ((_ bit2bool 4) P3)))
                      (or (not ((_ bit2bool 3) P3))
                          (not (= Y #b0))
                          (not (= I3 #b0)))
                      a!41
                      (or (= R2 #b000)
                          ((_ bit2bool 1) R2)
                          ((_ bit2bool 0) Z)
                          ((_ bit2bool 34) Z)
                          (not ((_ bit2bool 33) Z))
                          (not a!42))
                      (or (not ((_ bit2bool 1) P3))
                          (not (= E3 #b0))
                          (not (= G3 #b0)))
                      (or (not ((_ bit2bool 2) P3))
                          (not (= X1 #b0))
                          (not (= H3 #b0)))
                      a!43
                      a!44
                      (or (= R2 #b000)
                          ((_ bit2bool 3) O)
                          ((_ bit2bool 1) R2)
                          ((_ bit2bool 1) O)
                          ((_ bit2bool 2) O)
                          ((_ bit2bool 17) O)
                          ((_ bit2bool 31) O)
                          (not ((_ bit2bool 29) O)))
                      a!45
                      (or (not (= Q1 #b0))
                          ((_ bit2bool 0) L3)
                          (not ((_ bit2bool 6) P3)))
                      (or (not (= W1 #b0)) (= K3 #b1) (not ((_ bit2bool 5) P3))))))
       (= (INV!slice!1 A
                       B
                       C
                       D
                       E
                       F
                       G
                       H
                       I
                       J
                       K
                       L
                       M
                       N
                       O
                       P
                       Q
                       R
                       S
                       T
                       U
                       V
                       W
                       X
                       Y
                       Z
                       A1
                       B1
                       C1
                       D1
                       E1
                       F1
                       G1
                       H1
                       I1
                       J1
                       K1
                       L1
                       M1
                       N1
                       O1
                       P1
                       Q1
                       R1
                       S1
                       T1
                       U1
                       V1
                       W1
                       X1
                       Y1
                       Z1
                       A2
                       B2
                       C2
                       D2
                       E2
                       F2
                       G2
                       H2
                       I2
                       J2
                       K2
                       L2
                       M2
                       N2
                       O2
                       P2
                       Q2
                       R2
                       S2
                       T2
                       U2
                       V2
                       W2
                       X2
                       Y2
                       Z2
                       A3
                       B3
                       C3
                       D3
                       E3
                       F3
                       G3
                       H3
                       I3
                       J3
                       K3
                       L3
                       M3
                       N3
                       O3
                       P3
                       Q3
                       R3
                       S3
                       T3
                       U3
                       V3)
          a!46))))
     :weight 0))
